c This Formular is generated by mcnf
c
c    horn? no 
c    forced? no 
c    mixed sat? no 
c    clause length = 3 
c
p cnf 20  91 
 -11 -15 20 0
17 13 -19 0
-6 -13 16 0
15 -8 17 0
19 -4 -16 0
-16 -14 10 0
-6 -12 -5 0
20 -12 -16 0
14 15 -12 0
-13 -19 -16 0
-5 6 1 0
-2 -16 11 0
-16 -7 -19 0
-2 -6 -12 0
-3 -8 14 0
10 4 -12 0
17 -3 11 0
13 14 12 0
8 11 -20 0
4 -14 -7 0
11 -16 -4 0
%
0

37 42 30 93 100 52 51 49 71 25 6 49 36 6 19 99 46 100 35 80
